NAME: PointSet_Angle_50_4
TYPE: TSP
COMMENT: Points chosen discrete uniformly at random out of ${0, \ldots, 500}^2$.
DIMENSION: 50
EDGE_WEIGHT_TYPE: EUC_2D
NODE_COORD_SECTION
1 439 281
2 42 129
3 178 65
4 314 48
5 195 481
6 42 250
7 408 312
8 188 167
9 200 317
10 223 482
11 32 127
12 174 198
13 439 274
14 250 307
15 419 480
16 498 103
17 7 39
18 479 185
19 351 292
20 233 293
21 273 275
22 42 427
23 87 477
24 93 33
25 39 316
26 14 318
27 190 188
28 15 128
29 208 11
30 435 374
31 492 178
32 223 245
33 464 202
34 430 315
35 494 162
36 107 12
37 184 396
38 439 17
39 373 278
40 297 158
41 341 311
42 477 277
43 245 492
44 405 200
45 3 85
46 73 241
47 10 296
48 232 474
49 498 161
50 34 238
EOF
